100
120
100
100
100
100
99
99
97
97
97
97
95
92
91
89
88
88
88
88
88
86
85
85
83
82
81
81
80
80
80
79
78
76
75
75
71
70
70
70
69
69
68
67
67
65
63
63
62
62
62
56
54
54
54
53
52
52
51
49
49
47
42
42
42
41
40
40
38
38
35
34
34
33
31
31
31
31
30
30
29
27
27
26
23
22
22
21
19
19
17
16
15
15
12
11
10
9
9
8
4
1
